NAME: p43Preorder
TYPE: ATSP
DIMENSION: 43
EDGE_WEIGHT_TYPE: EXPLICIT
EDGE_WEIGHT_FORMAT: FULL_MATRIX 
EDGE_WEIGHT_SECTION
9999	20	20	20	7	41	41	41	44	44	44	44	57	57	57	67	67	67	77	77	77	55	27	27	31	34	68	21	21	42	42	45	45	58	58	16	21	24	91	91	97	97	97	
27	9999	0	0	27	4	4	4	7	7	7	7	9	9	9	12	12	12	59	59	59	43	17	17	12	17	23	1	1	5	5	8	8	10	10	5	1	5	81	81	85	85	85	
27	0	9999	0	27	4	4	4	7	7	7	7	9	9	9	12	12	12	59	59	59	43	17	17	12	17	23	1	1	5	5	8	8	10	10	5	1	5	81	81	85	85	85	
27	0	0	9999	27	4	4	4	7	7	7	7	9	9	9	12	12	12	59	59	59	43	17	17	12	17	23	1	1	5	5	8	8	10	10	5	1	5	81	81	85	85	85	
7	20	20	20	9999	20	20	20	23	23	23	23	25	25	25	27	27	27	67	67	67	55	34	34	31	27	37	21	21	21	21	24	24	26	26	24	21	16	88	88	92	92	92	
48	4	4	4	27	9999	0	0	2	2	2	2	4	4	4	9	9	9	18	18	18	66	41	41	17	17	20	5	5	1	1	3	3	5	5	33	5	5	81	81	83	83	83	
48	4	4	4	27	0	9999	0	2	2	2	2	4	4	4	9	9	9	18	18	18	66	41	41	17	17	20	5	5	1	1	3	3	5	5	33	5	5	81	81	83	83	83	
48	4	4	4	27	0	0	9999	2	2	2	2	4	4	4	9	9	9	18	18	18	66	41	41	17	17	20	5	5	1	1	3	3	5	5	33	5	5	81	81	83	83	83	
53	7	7	7	29	2	2	2	9999	0	0	0	9	9	9	12	12	12	18	18	18	66	44	44	20	20	23	8	8	3	3	1	1	10	10	39	8	8	83	83	85	85	85	
53	7	7	7	29	2	2	2	0	9999	0	0	9	9	9	12	12	12	18	18	18	66	44	44	20	20	23	8	8	3	3	1	1	10	10	39	8	8	83	83	85	85	85	
53	7	7	7	29	2	2	2	0	0	9999	0	9	9	9	12	12	12	18	18	18	66	44	44	20	20	23	8	8	3	3	1	1	10	10	39	8	8	83	83	85	85	85	
53	7	7	7	29	2	2	2	0	0	0	9999	9	9	9	12	12	12	18	18	18	66	44	44	20	20	23	8	8	3	3	1	1	10	10	39	8	8	83	83	85	85	85	
64	9	9	9	31	4	4	4	4	4	4	4	9999	0	0	9	9	9	18	18	18	69	57	57	22	22	18	10	10	5	5	5	5	1	1	51	10	10	84	84	82	82	82	
64	9	9	9	31	4	4	4	4	4	4	4	0	9999	0	9	9	9	18	18	18	69	57	57	22	22	18	10	10	5	5	5	5	1	1	51	10	10	84	84	82	82	82	
64	9	9	9	31	4	4	4	4	4	4	4	0	0	9999	9	9	9	18	18	18	69	57	57	22	22	18	10	10	5	5	5	5	1	1	51	10	10	84	84	82	82	82	
71	12	12	12	34	9	9	9	12	12	12	12	9	9	9	9999	0	0	9	9	9	79	67	67	25	25	22	13	13	10	10	13	13	10	10	62	13	13	86	86	84	84	84	
71	12	12	12	34	9	9	9	12	12	12	12	9	9	9	0	9999	0	9	9	9	79	67	67	25	25	22	13	13	10	10	13	13	10	10	62	13	13	86	86	84	84	84	
71	12	12	12	34	9	9	9	12	12	12	12	9	9	9	0	0	9999	9	9	9	79	67	67	25	25	22	13	13	10	10	13	13	10	10	62	13	13	86	86	84	84	84	
78	59	59	59	70	18	18	18	18	18	18	18	18	18	18	9	9	9	9999	0	0	83	77	77	66	66	29	60	60	19	19	19	19	19	19	75	60	60	96	96	90	90	90	
78	59	59	59	70	18	18	18	18	18	18	18	18	18	18	9	9	9	0	9999	0	83	77	77	66	66	29	60	60	19	19	19	19	19	19	75	60	60	96	96	90	90	90	
78	59	59	59	70	18	18	18	18	18	18	18	18	18	18	9	9	9	0	0	9999	83	77	77	66	66	29	60	60	19	19	19	19	19	19	75	60	60	96	96	90	90	90	
46	34	34	34	50	40	40	40	40	40	40	40	50	50	50	76	76	76	79	79	79	9999	18	18	23	23	59	34	34	40	40	40	40	50	50	29	34	34	93	93	97	97	97	
34	17	17	17	40	40	40	40	43	43	43	43	56	56	56	66	66	66	76	76	76	35	9999	0	4	7	55	17	17	40	40	43	43	56	56	12	17	20	87	87	95	95	95	
34	17	17	17	40	40	40	40	43	43	43	43	56	56	56	66	66	66	76	76	76	35	0	9999	4	7	55	17	17	40	40	43	43	56	56	12	17	20	87	87	95	95	95	
38	12	12	12	38	17	17	17	20	20	20	20	22	22	22	25	25	25	66	66	66	35	4	4	9999	4	11	12	12	17	17	20	20	22	22	17	12	17	85	85	89	89	89	
40	17	17	17	34	17	17	17	20	20	20	20	22	22	22	25	25	25	66	66	66	35	7	7	4	9999	11	17	17	17	17	20	20	22	22	20	17	12	82	82	89	89	89	
72	23	23	23	41	20	20	20	23	23	23	23	18	18	18	17	17	17	29	29	29	73	56	56	11	11	9999	23	23	20	20	23	23	18	18	63	23	23	89	89	82	82	82	
28	1	1	1	28	5	5	5	8	8	8	8	10	10	10	13	13	13	60	60	60	43	17	17	12	17	23	9999	0	4	4	7	7	9	9	11	6	11	81	81	85	85	85	
28	1	1	1	28	5	5	5	8	8	8	8	10	10	10	13	13	13	60	60	60	43	17	17	12	17	23	0	9999	4	4	7	7	9	9	11	6	11	81	81	85	85	85	
49	5	5	5	28	1	1	1	3	3	3	3	5	5	5	10	10	10	19	19	19	66	41	41	17	17	20	4	4	9999	0	2	2	4	4	38	11	11	81	81	83	83	83	
49	5	5	5	28	1	1	1	3	3	3	3	5	5	5	10	10	10	19	19	19	66	41	41	17	17	20	4	4	0	9999	2	2	4	4	38	11	11	81	81	83	83	83	
54	8	8	8	30	3	3	3	1	1	1	1	10	10	10	13	13	13	19	19	19	66	44	44	20	20	23	7	7	2	2	9999	0	9	9	41	14	14	83	83	85	85	85	
54	8	8	8	30	3	3	3	1	1	1	1	10	10	10	13	13	13	19	19	19	66	44	44	20	20	23	7	7	2	2	0	9999	9	9	41	14	14	83	83	85	85	85	
65	10	10	10	32	5	5	5	5	5	5	5	1	1	1	10	10	10	19	19	19	69	57	57	22	22	18	9	9	4	4	4	4	9999	0	55	15	15	84	84	82	82	82	
65	10	10	10	32	5	5	5	5	5	5	5	1	1	1	10	10	10	19	19	19	69	57	57	22	22	18	9	9	4	4	4	4	0	9999	55	15	15	84	84	82	82	82	
24	5	5	5	30	30	30	30	36	36	36	36	47	47	47	60	60	60	74	74	74	43	12	12	17	20	61	11	11	35	35	40	40	52	52	9999	4	7	83	83	94	94	94	
28	1	1	1	28	5	5	5	8	8	8	8	10	10	10	13	13	13	60	60	60	43	17	17	12	17	23	6	6	11	11	14	14	15	15	4	9999	4	81	81	85	85	85	
30	5	5	5	24	5	5	5	8	8	8	8	10	10	10	13	13	13	60	60	60	43	20	20	17	12	23	11	11	11	11	14	14	15	15	7	4	9999	80	80	85	85	85	
109	99	99	99	108	99	99	99	101	101	101	101	102	102	102	104	104	104	113	113	113	111	105	105	103	100	106	99	99	99	99	101	101	102	102	101	99	98	9999	0	11	11	11	
109	99	99	99	108	99	99	99	101	101	101	101	102	102	102	104	104	104	113	113	113	111	105	105	103	100	106	99	99	99	99	101	101	102	102	101	99	98	0	9999	11	11	11	
114	103	103	103	110	101	101	101	103	103	103	103	100	100	100	99	99	99	107	107	107	115	113	113	106	106	100	103	103	101	101	103	103	100	100	112	103	103	11	11	9999	0	0	
114	103	103	103	110	101	101	101	103	103	103	103	100	100	100	99	99	99	107	107	107	115	113	113	106	106	100	103	103	101	101	103	103	100	100	112	103	103	11	11	0	9999	0	
114	103	103	103	110	101	101	101	103	103	103	103	100	100	100	99	99	99	107	107	107	115	113	113	106	106	100	103	103	101	101	103	103	100	100	112	103	103	11	11	0	0	9999	
EOF